\* column_knapsack_problem *\
Minimize
knapsack: 4 col_1 + 5 col_2 + 5 col_3 + 4 col_4 + col_5 + 5 col_6 + 4 col_9
Subject To
sensitivity: 5 col_0 + col_1 + col_4 + 4 col_5 + 5 col_7 + 5 col_8 + col_9
 >= 14.3
Binaries
col_0
col_1
col_2
col_3
col_4
col_5
col_6
col_7
col_8
col_9
End
